param W := 6000;
param M := 7;

param w := 
      1  1300
      2  300
      3    2
      4   50
      5  800
      6  5980
      7  6001
;

param b := 
      1   50
      2  100
      3  2000
      4  100
      5   50
      6   23
      7    1
;

end;
